	Costo	Iter.	Tiempo
1	536,5	468	47,088
2	871,82	176	30,883
3	842,85	251	111,91
4	1094,15	132	151,067
5	1388,95	164	371,685
6	560,88	183	16,323
7	923,83	265	100,885
8	867,53	351	197,233
9	1216,53	196	2114,751
10	1502,89	154	7608,34
11	1258,51	192	142,635
12	819,96	548	225,354
13	1606,24	286	242,829
14	932,67	300	128,064
